c File: instances/12_0.30_1.col
c
c Description: Random graph of size 12 vertices and P(0.3) of edges between any two vertices.
p col 12 66
e 1 2
e 3 5
e 3 6
e 4 6
e 4 8
e 5 6
e 6 8
e 6 9
e 6 11
e 7 9
e 7 11
e 7 12
e 8 11
e 9 10
e 10 12